&CONTROL
calculation = 'scf'
restart_mode = 'from_scratch'
prefix = 'pwscf'
pseudo_dir = './pseudo'
outdir = './out'
wf_collect = .TRUE.
tprnfor = .TRUE.
verbosity = 'high'
forc_conv_thr = 0.000039
/
&SYSTEM
ibrav = 0
nat = 215
ntyp = 5
ecutwfc = 80
tot_charge = -1
nspin = 2
nbnd = 440
tot_magnetization = 0
starting_magnetization(1) =  0.0   ! C
starting_magnetization(2) =  0.5   ! C1
starting_magnetization(3) = -0.25  ! C2
starting_magnetization(4) = -0.25  ! C3
starting_magnetization(5) =  0.0   ! N
/
&ELECTRONS
electron_maxstep = 600
conv_thr = 1.0d-10
mixing_mode = 'plain'
mixing_beta = 0.7
diagonalization = 'david'
diago_full_acc = .TRUE.
startingpot = 'atomic'
startingwfc = 'atomic+random'
/
ATOMIC_SPECIES
C  12.011   C_ONCV_PBE-1.2.upf
C1  12.011   C_ONCV_PBE-1.2.upf
C2  12.011   C_ONCV_PBE-1.2.upf
C3  12.011   C_ONCV_PBE-1.2.upf
N  14.0067  N_ONCV_PBE-1.2.upf
K_POINTS gamma

CELL_PARAMETERS angstrom
10.70400000000000 0.00000000000000 0.00000000000000
0.00000000000000 10.70400000000000 0.00000000000000
0.00000000000000 0.00000000000000 10.70400000000000


ATOMIC_POSITIONS crystal
N -0.0082435000 -0.0082435000 -0.0082435000
C1 -0.0036304000 0.1728266000 0.1728266000
C 0.0829271000 0.2499112000 0.2499112000
C2 0.1728266000 -0.0036304000 0.1728266000
C 0.2499112000 0.0829271000 0.2499112000
C3 0.1728266000 0.1728266000 -0.0036304000
C 0.2499112000 0.2499112000 0.0829271000
C 0.0005818000 0.0005818000 0.3325126000
C 0.0835679000 0.0835679000 0.4162969000
C 0.0001620000 0.1666564000 0.4999890000
C 0.0834105000 0.2498723000 0.5835737000
C 0.1666564000 0.0001620000 0.4999890000
C 0.2498723000 0.0834105000 0.5835737000
C 0.1667833000 0.1667833000 0.3331200000
C 0.2499530000 0.2499530000 0.4166449000
C -0.0001471000 -0.0001471000 0.6665841000
C 0.0831876000 0.0831876000 0.7505573000
C 0.0007792000 0.1650002000 0.8350429000
C 0.0843796000 0.2486581000 0.9185766000
C 0.1650002000 0.0007792000 0.8350429000
C 0.2486581000 0.0843796000 0.9185766000
C 0.1666210000 0.1666210000 0.6670002000
C 0.2500055000 0.2500055000 0.7502509000
C 0.0005818000 0.3325126000 0.0005818000
C 0.0835679000 0.4162969000 0.0835679000
C 0.0001620000 0.4999890000 0.1666564000
C 0.0834105000 0.5835737000 0.2498723000
C 0.1667833000 0.3331200000 0.1667833000
C 0.2499530000 0.4166449000 0.2499530000
C 0.1666564000 0.4999890000 0.0001620000
C 0.2498723000 0.5835737000 0.0834105000
C 0.0005694000 0.3343418000 0.3343418000
C 0.0833659000 0.4172627000 0.4172627000
C 0.0001504000 0.5002581000 0.5002581000
C 0.0833069000 0.5833470000 0.5833470000
C 0.1667665000 0.3334490000 0.5002382000
C 0.2500682000 0.4167288000 0.5834898000
C 0.1667665000 0.5002382000 0.3334490000
C 0.2500682000 0.5834898000 0.4167288000
C 0.0001756000 0.3328449000 0.6671945000
C 0.0834731000 0.4167259000 0.7500020000
C 0.0000183000 0.4997115000 0.8334448000
C 0.0832680000 0.5832414000 0.9167593000
C 0.1664719000 0.3337181000 0.8331129000
C 0.2500994000 0.4167560000 0.9168892000
C 0.1665982000 0.5001400000 0.6666833000
C 0.2499088000 0.5834680000 0.7501600000
C -0.0001471000 0.6665841000 -0.0001471000
C 0.0831876000 0.7505573000 0.0831876000
C 0.0007792000 0.8350429000 0.1650002000
C 0.0843796000 0.9185766000 0.2486581000
C 0.1666210000 0.6670002000 0.1666210000
C 0.2500055000 0.7502509000 0.2500055000
C 0.1650002000 0.8350429000 0.0007792000
C 0.2486581000 0.9185766000 0.0843796000
C 0.0001756000 0.6671945000 0.3328449000
C 0.0834731000 0.7500020000 0.4167259000
C 0.0000183000 0.8334448000 0.4997115000
C 0.0832680000 0.9167593000 0.5832414000
C 0.1665982000 0.6666833000 0.5001400000
C 0.2499088000 0.7501600000 0.5834680000
C 0.1664719000 0.8331129000 0.3337181000
C 0.2500994000 0.9168892000 0.4167560000
C -0.0001442000 0.6662923000 0.6662923000
C 0.0829224000 0.7493962000 0.7493962000
C -0.0005590000 0.8319237000 0.8319237000
C 0.0792059000 0.9167289000 0.9167289000
C 0.1663388000 0.6668146000 0.8333999000
C 0.2489358000 0.7510587000 0.9169535000
C 0.1663388000 0.8333999000 0.6668146000
C 0.2489358000 0.9169535000 0.7510587000
C 0.3325126000 0.0005818000 0.0005818000
C 0.4162969000 0.0835679000 0.0835679000
C 0.3331200000 0.1667833000 0.1667833000
C 0.4166449000 0.2499530000 0.2499530000
C 0.4999890000 0.0001620000 0.1666564000
C 0.5835737000 0.0834105000 0.2498723000
C 0.4999890000 0.1666564000 0.0001620000
C 0.5835737000 0.2498723000 0.0834105000
C 0.3343418000 0.0005694000 0.3343418000
C 0.4172627000 0.0833659000 0.4172627000
C 0.3334490000 0.1667665000 0.5002382000
C 0.4167288000 0.2500682000 0.5834898000
C 0.5002581000 0.0001504000 0.5002581000
C 0.5833470000 0.0833069000 0.5833470000
C 0.5002382000 0.1667665000 0.3334490000
C 0.5834898000 0.2500682000 0.4167288000
C 0.3328449000 0.0001756000 0.6671945000
C 0.4167259000 0.0834731000 0.7500020000
C 0.3337181000 0.1664719000 0.8331129000
C 0.4167560000 0.2500994000 0.9168892000
C 0.4997115000 0.0000183000 0.8334448000
C 0.5832414000 0.0832680000 0.9167593000
C 0.5001400000 0.1665982000 0.6666833000
C 0.5834680000 0.2499088000 0.7501600000
C 0.3343418000 0.3343418000 0.0005694000
C 0.4172627000 0.4172627000 0.0833659000
C 0.3334490000 0.5002382000 0.1667665000
C 0.4167288000 0.5834898000 0.2500682000
C 0.5002382000 0.3334490000 0.1667665000
C 0.5834898000 0.4167288000 0.2500682000
C 0.5002581000 0.5002581000 0.0001504000
C 0.5833470000 0.5833470000 0.0833069000
C 0.3333870000 0.3333870000 0.3333870000
C 0.4167180000 0.4167180000 0.4167180000
C 0.3333559000 0.5000716000 0.5000716000
C 0.4166187000 0.5834094000 0.5834094000
C 0.5000716000 0.3333559000 0.5000716000
C 0.5834094000 0.4166187000 0.5834094000
C 0.5000716000 0.5000716000 0.3333559000
C 0.5834094000 0.5834094000 0.4166187000
C 0.3333595000 0.3333595000 0.6668336000
C 0.4166559000 0.4166559000 0.7501852000
C 0.3332409000 0.5001268000 0.8334800000
C 0.4163991000 0.5835852000 0.9167251000
C 0.5001268000 0.3332409000 0.8334800000
C 0.5835852000 0.4163991000 0.9167251000
C 0.4999582000 0.4999582000 0.6667363000
C 0.5832013000 0.5832013000 0.7500093000
C 0.3328449000 0.6671945000 0.0001756000
C 0.4167259000 0.7500020000 0.0834731000
C 0.3337181000 0.8331129000 0.1664719000
C 0.4167560000 0.9168892000 0.2500994000
C 0.5001400000 0.6666833000 0.1665982000
C 0.5834680000 0.7501600000 0.2499088000
C 0.4997115000 0.8334448000 0.0000183000
C 0.5832414000 0.9167593000 0.0832680000
C 0.3333595000 0.6668336000 0.3333595000
C 0.4166559000 0.7501852000 0.4166559000
C 0.3332409000 0.8334800000 0.5001268000
C 0.4163991000 0.9167251000 0.5835852000
C 0.4999582000 0.6667363000 0.4999582000
C 0.5832013000 0.7500093000 0.5832013000
C 0.5001268000 0.8334800000 0.3332409000
C 0.5835852000 0.9167251000 0.4163991000
C 0.3331552000 0.6668032000 0.6668032000
C 0.4162161000 0.7501952000 0.7501952000
C 0.3326746000 0.8337765000 0.8337765000
C 0.4159969000 0.9171429000 0.9171429000
C 0.4996454000 0.6667032000 0.8333614000
C 0.5829033000 0.7498812000 0.9165512000
C 0.4996454000 0.8333614000 0.6667032000
C 0.5829033000 0.9165512000 0.7498812000
C 0.6665841000 -0.0001471000 -0.0001471000
C 0.7505573000 0.0831876000 0.0831876000
C 0.6670002000 0.1666210000 0.1666210000
C 0.7502509000 0.2500055000 0.2500055000
C 0.8350429000 0.0007792000 0.1650002000
C 0.9185766000 0.0843796000 0.2486581000
C 0.8350429000 0.1650002000 0.0007792000
C 0.9185766000 0.2486581000 0.0843796000
C 0.6671945000 0.0001756000 0.3328449000
C 0.7500020000 0.0834731000 0.4167259000
C 0.6666833000 0.1665982000 0.5001400000
C 0.7501600000 0.2499088000 0.5834680000
C 0.8334448000 0.0000183000 0.4997115000
C 0.9167593000 0.0832680000 0.5832414000
C 0.8331129000 0.1664719000 0.3337181000
C 0.9168892000 0.2500994000 0.4167560000
C 0.6662923000 -0.0001442000 0.6662923000
C 0.7493962000 0.0829224000 0.7493962000
C 0.6668146000 0.1663388000 0.8333999000
C 0.7510587000 0.2489358000 0.9169535000
C 0.8319237000 -0.0005590000 0.8319237000
C 0.9167289000 0.0792059000 0.9167289000
C 0.8333999000 0.1663388000 0.6668146000
C 0.9169535000 0.2489358000 0.7510587000
C 0.6671945000 0.3328449000 0.0001756000
C 0.7500020000 0.4167259000 0.0834731000
C 0.6666833000 0.5001400000 0.1665982000
C 0.7501600000 0.5834680000 0.2499088000
C 0.8331129000 0.3337181000 0.1664719000
C 0.9168892000 0.4167560000 0.2500994000
C 0.8334448000 0.4997115000 0.0000183000
C 0.9167593000 0.5832414000 0.0832680000
C 0.6668336000 0.3333595000 0.3333595000
C 0.7501852000 0.4166559000 0.4166559000
C 0.6667363000 0.4999582000 0.4999582000
C 0.7500093000 0.5832013000 0.5832013000
C 0.8334800000 0.3332409000 0.5001268000
C 0.9167251000 0.4163991000 0.5835852000
C 0.8334800000 0.5001268000 0.3332409000
C 0.9167251000 0.5835852000 0.4163991000
C 0.6668032000 0.3331552000 0.6668032000
C 0.7501952000 0.4162161000 0.7501952000
C 0.6667032000 0.4996454000 0.8333614000
C 0.7498812000 0.5829033000 0.9165512000
C 0.8337765000 0.3326746000 0.8337765000
C 0.9171429000 0.4159969000 0.9171429000
C 0.8333614000 0.4996454000 0.6667032000
C 0.9165512000 0.5829033000 0.7498812000
C 0.6662923000 0.6662923000 -0.0001442000
C 0.7493962000 0.7493962000 0.0829224000
C 0.6668146000 0.8333999000 0.1663388000
C 0.7510587000 0.9169535000 0.2489358000
C 0.8333999000 0.6668146000 0.1663388000
C 0.9169535000 0.7510587000 0.2489358000
C 0.8319237000 0.8319237000 -0.0005590000
C 0.9167289000 0.9167289000 0.0792059000
C 0.6668032000 0.6668032000 0.3331552000
C 0.7501952000 0.7501952000 0.4162161000
C 0.6667032000 0.8333614000 0.4996454000
C 0.7498812000 0.9165512000 0.5829033000
C 0.8333614000 0.6667032000 0.4996454000
C 0.9165512000 0.7498812000 0.5829033000
C 0.8337765000 0.8337765000 0.3326746000
C 0.9171429000 0.9171429000 0.4159969000
C 0.6664919000 0.6664919000 0.6664919000
C 0.7496816000 0.7496816000 0.7496816000
C 0.6660535000 0.8329839000 0.8329839000
C 0.7491340000 0.9160812000 0.9160812000
C 0.8329839000 0.6660535000 0.8329839000
C 0.9160812000 0.7491340000 0.9160812000
C 0.8329839000 0.8329839000 0.6660535000
C 0.9160812000 0.9160812000 0.7491340000

